sat
(:SPACER-cex-depth                 2
 :SPACER-inductive-gen             1
 :SPACER-inductive-gen-weaken-fail 1
 :SPACER-max-depth                 2
 :SPACER-max-query-lvl             2
 :SPACER-num-active-lemmas         2
 :SPACER-num-is_invariant          2
 :SPACER-num-lemmas                3
 :SPACER-num-pobs                  2
 :SPACER-num-queries               2
 :SPACER-num-reach-queries         2
 :SPACER-num-reuse-reach-facts     1
 :added-eqs                        104
 :arith-assert-diseq               6
 :arith-assert-lower               72
 :arith-assert-upper               50
 :arith-bound-prop                 14
 :arith-conflicts                  4
 :arith-eq-adapter                 26
 :arith-fixed-eqs                  14
 :arith-num-rows                   24
 :arith-offset-eqs                 4
 :arith-pivots                     28
 :arith-row-summations             56
 :arith-tableau-max-columns        58
 :arith-tableau-max-rows           24
 :conflicts                        18
 :decisions                        76
 :del-clause                       24
 :final-checks                     12
 :iuc_solver.num_proxies           3
 :max-memory                       30.22
 :memory                           30.22
 :mk-bool-var                      246
 :mk-clause                        230
 :num-allocs                       4285759
 :num-checks                       24
 :pool_solver.checks               12
 :pool_solver.checks.sat           6
 :propagations                     256
 :rlimit-count                     4334
 :time                             0.02
 :time.pool_solver.smt.total       0.00
 :time.pool_solver.smt.total.sat   0.00
 :time.spacer.init_rules           0.00
 :time.spacer.solve                0.01
 :time.spacer.solve.reach          0.01)
(:max-memory   30.22
 :memory       30.22
 :num-allocs   4285759
 :rlimit-count 4334
 :time         0.02
 :total-time   0.04)
